&DOS
  prefix = 'graphene',
  outdir = './tmp/graphene',
  fildos = 'graphene-dos-36.dat'
/

