&DOS
  prefix = 'graphene',
  outdir = './tmp/graphene',
  fildos = 'graphene-dos-17.dat'
/

