&BANDS
  prefix  = 'graphene'
  outdir = './tmp/graphene'
  filband = 'graphene-bands.dat'
  lsym = .true.
/

